80 15 133 50 166 82 195 108 21 132 43 153 62 170 76 182 88 190 94 194 96 193 92 187 84 177 70 162 54 144 33 121 8 95 174 56 137 17 98 168 42 118 188 57 126 192 53 119 178 36 99 149 5 55 107 151 0 39 81 123 157 191 23 49 77 105 127 143 159 172 183 196 198 1 199 185 175 161 146 129 109 79 52 26 184 139 93 45 3 131 68 11 125 51 164 75 181 85 173 65 142 27 91 150 16 60 102 130 155 171 186 180 165 145 115 78 37 179 104 30 124 31 110 176 34 69 97 106 100 71 38 189 90 12 74 140 169 7 197 111 66 117 47 89 112 67 22 120 160 4 147 59 134 136 73 163 10 135 19 14 87 41 20 18 64 29 44 152 128 116 138 113 72 167 158 48 9 154 148 24 61 2 141 28 86 25 46 83 101 32 40 6 114 122 58 156 13 103 63 35 

